1, 33, 34, 35, 39, 42, 43, 50, 48, 49, 41, 40, 38, 20, 19, 1
1, 15, 52, 53, 22, 21, 27, 28, 29, 44, 25, 23, 30, 1
1, 14, 16, 4, 6, 5, 9, 12, 11, 10, 13, 8, 7, 3, 2, 18, 1
1, 36, 51, 46, 45, 47, 37, 24, 32, 31, 26, 17, 1
